NAME : traveling-santa-2018-prime-paths.31312.tour
COMMENT : Length = 31312
COMMENT : Found by LKH [Keld Helsgaun] Sun Jun 12 19:59:50 2022
TYPE : TOUR
DIMENSION : 100
TOUR_SECTION
1
18
88
22
30
92
8
91
31
74
60
90
96
59
76
7
28
73
2
24
64
95
89
77
50
44
71
61
69
4
68
21
82
43
70
15
52
63
12
32
47
27
87
99
75
20
14
25
93
56
33
54
23
85
66
16
35
94
55
98
62
39
45
19
36
86
79
26
100
81
80
29
3
38
5
42
97
53
51
58
6
48
10
34
57
13
46
37
83
9
17
40
78
49
72
84
11
67
41
65
-1
EOF
